nested_8.cnf
c root node variable = 136
c  x1 = 1
c  x4 = 2
c  x3 = 4
c  x9 = 5
c  x7 = 8
c  x5 = 14
c  x6 = 17
c  x2 = 23
c  x8 = 97
p cnf 136 213
136 0 
-136 71 0 
-136 135 0 
-71 39 70 0 
-39 22 0 
-39 38 0 
-22 12 21 0 
-12 7 0 
-12 11 0 
-7 3 6 0 
-3 1 0 
-3 -2 0 
-6 4 0 
-6 5 0 
-11 9 10 0 
-9 8 0 
-9 1 0 
-10 2 0 
-10 5 0 
-21 16 0 
-21 20 0 
-16 13 15 0 
-13 5 0 
-13 5 0 
-15 -2 0 
-15 -14 0 
-20 18 19 0 
-18 4 0 
-18 -17 0 
-19 -4 0 
-19 17 0 
-38 30 37 0 
-30 26 0 
-30 29 0 
-26 24 25 0 
-24 23 0 
-24 -23 0 
-25 -17 0 
-25 -1 0 
-29 27 28 0 
-27 -5 0 
-27 8 0 
-28 5 0 
-28 -17 0 
-37 33 0 
-37 36 0 
-33 31 32 0 
-31 23 0 
-31 2 0 
-32 -23 0 
-32 23 0 
-36 34 35 0 
-34 -14 0 
-34 -17 0 
-35 17 0 
-35 -2 0 
-70 54 0 
-70 69 0 
-54 46 53 0 
-46 42 0 
-46 45 0 
-42 40 41 0 
-40 -23 0 
-40 5 0 
-41 4 0 
-41 -8 0 
-45 43 44 0 
-43 -5 0 
-43 17 0 
-44 2 0 
-44 17 0 
-53 49 0 
-53 52 0 
-49 47 48 0 
-47 -14 0 
-47 2 0 
-48 -2 0 
-48 -8 0 
-52 50 51 0 
-50 -4 0 
-50 -4 0 
-51 5 0 
-51 -8 0 
-69 61 68 0 
-61 57 0 
-61 60 0 
-57 55 56 0 
-55 -17 0 
-55 4 0 
-56 -23 0 
-56 23 0 
-60 58 59 0 
-58 4 0 
-58 -23 0 
-59 -8 0 
-59 -5 0 
-68 64 0 
-68 67 0 
-64 62 63 0 
-62 -5 0 
-62 23 0 
-63 -17 0 
-63 14 0 
-67 65 66 0 
-65 -4 0 
-65 -1 0 
-66 -5 0 
-66 5 0 
-135 103 134 0 
-103 86 0 
-103 102 0 
-86 78 85 0 
-78 74 0 
-78 77 0 
-74 72 73 0 
-72 14 0 
-72 4 0 
-73 -4 0 
-73 17 0 
-77 75 76 0 
-75 -1 0 
-75 17 0 
-76 -2 0 
-76 2 0 
-85 81 0 
-85 84 0 
-81 79 80 0 
-79 23 0 
-79 -23 0 
-80 4 0 
-80 -5 0 
-84 82 83 0 
-82 14 0 
-82 -2 0 
-83 14 0 
-83 -17 0 
-102 93 101 0 
-93 89 0 
-93 92 0 
-89 87 88 0 
-87 -5 0 
-87 -23 0 
-88 2 0 
-88 17 0 
-92 90 91 0 
-90 5 0 
-90 2 0 
-91 23 0 
-91 2 0 
-101 96 0 
-101 100 0 
-96 94 95 0 
-94 1 0 
-94 -23 0 
-95 14 0 
-95 -2 0 
-100 98 99 0 
-98 97 0 
-98 97 0 
-99 -2 0 
-99 23 0 
-134 118 0 
-134 133 0 
-118 110 117 0 
-110 106 0 
-110 109 0 
-106 104 105 0 
-104 -17 0 
-104 -8 0 
-105 -1 0 
-105 1 0 
-109 107 108 0 
-107 -17 0 
-107 2 0 
-108 2 0 
-108 -4 0 
-117 113 0 
-117 116 0 
-113 111 112 0 
-111 -4 0 
-111 -97 0 
-112 23 0 
-112 -5 0 
-116 114 115 0 
-114 1 0 
-114 23 0 
-115 4 0 
-115 -97 0 
-133 125 132 0 
-125 121 0 
-125 124 0 
-121 119 120 0 
-119 -2 0 
-119 -1 0 
-120 8 0 
-120 8 0 
-124 122 123 0 
-122 -97 0 
-122 -8 0 
-123 -4 0 
-123 14 0 
-132 128 0 
-132 131 0 
-128 126 127 0 
-126 1 0 
-126 17 0 
-127 1 0 
-127 -5 0 
-131 129 130 0 
-129 1 0 
-129 4 0 
-130 23 0 
-130 8 0 
